12
-1 67 34 69 24 78 58 62 64 5 45 81
27 -1 91 95 42 27 36 91 4 2 53 92
82 21 -1 18 95 47 26 71 38 69 12 67
99 35 94 -1 11 22 33 73 64 41 11 53
68 47 44 62 -1 37 59 23 41 29 78 16
35 90 42 88 6 -1 42 64 48 46 5 90
29 70 50 6 1 93 -1 29 23 84 54 56
40 66 76 31 8 44 39 -1 23 37 38 18
82 29 41 33 15 39 58 4 -1 77 6 73
86 21 45 24 72 70 29 77 73 -1 12 86
90 61 36 55 67 55 74 31 52 50 -1 41
24 66 30 7 91 7 37 57 87 53 83 -1